c POSIT generated this problem file.
c
p cnf 10 70
8 -10 1 0
8 10 -2 0
6 -5 2 0
-5 -4 -1 0
2 3 -4 0
7 -1 -2 0
2 6 8 0
10 -6 -8 0
-5 -1 3 0
-9 -10 -1 0
-5 6 4 0
-4 1 -3 0
-2 4 1 0
-2 -4 -1 0
-7 6 2 0
-8 -10 1 0
4 -6 -9 0
-1 -5 8 0
-3 1 7 0
2 -7 -6 0
-7 3 -2 0
-2 -5 -9 0
1 5 -2 0
8 5 4 0
-1 2 7 0
5 -4 -3 0
7 -5 -2 0
9 -6 3 0
-1 -5 -10 0
2 -1 6 0
-3 -5 2 0
-7 -5 10 0
3 -4 -10 0
10 2 7 0
5 -1 -4 0
9 -1 -5 0
-3 10 -1 0
4 2 -5 0
4 -10 -7 0
1 8 2 0
-3 7 -8 0
-2 -7 -9 0
2 -4 7 0
7 -2 -4 0
-10 1 3 0
-8 -4 -7 0
2 -3 -4 0
-4 9 6 0
9 -6 -10 0
-1 8 -7 0
10 -2 -4 0
4 -6 -10 0
-4 5 10 0
9 -8 6 0
8 9 2 0
-4 1 10 0
-4 3 -10 0
10 1 4 0
3 6 -4 0
6 8 1 0
-5 9 4 0
2 -9 -7 0
4 10 -5 0
3 -10 1 0
-9 -7 1 0
-3 -2 7 0
6 -2 10 0
6 5 4 0
-10 5 -7 0
-10 4 -9 0
